100 152254
63 17 22 18 75 34 1 82 48 98 94 67 78 55 53 64 69 7 27 62 96 92 44 70 47 91 29 95 12 39 21 16 36 51 83 93 37 56 77 45 72 81 26 9 71 84 35 5 60 74 13 4 89 76 28 46 11 6 54 33 32 99 40 88 23 38 24 50 85 41 86 61 73 87 68 3 66 8 43 79 31 97 59 14 30 49 2 25 52 42 90 80 15 20 65 57 58 10 100 19 
